/*********************************************
 * OPL 12.6.3.0 Data
 * Author: patrickmesana
 * Creation Date: 2016-02-10 at 9:17:54 PM
 *********************************************/

nbrAvionsMax = 100;
 
nbrProduitsMax = 15;
 
avionMasseMax = 100;
 
ACD = [200 250 200];
 
PQ = [130 80 130 110 130 140 140 110 100 130 80 120 90 100 120];

PV = [6 8 8 4 8 5 4 6 6 6 5 6 8 6 6];